Version identifier: 22.1.1.0 | 2022-11-28 | 9160aff4d
CPXPARAM_ClockType                               1
CPXPARAM_Read_DataCheck                          1
CPXPARAM_Threads                                 1
CPXPARAM_TimeLimit                               7200
CPXPARAM_MIP_Tolerances_AbsMIPGap                0
CPXPARAM_MIP_Tolerances_MIPGap                   0
CPXPARAM_MIP_Tolerances_Integrality              0
Tried aggregator 5 times.
MIP Presolve eliminated 4983 rows and 1259 columns.
MIP Presolve modified 2 coefficients.
Aggregator did 287 substitutions.
Reduced MIP has 1983 rows, 1014 columns, and 5379 nonzeros.
Reduced MIP has 1014 binaries, 0 generals, 0 SOSs, and 0 indicators.
Presolve time = 0.02 sec. (10.94 ticks)
Found incumbent of value 0.000000 after 0.02 sec. (12.41 ticks)
Probing time = 0.01 sec. (3.34 ticks)
Tried aggregator 2 times.
Detecting symmetries...
MIP Presolve eliminated 4 rows and 4 columns.
MIP Presolve modified 3 coefficients.
Aggregator did 1 substitutions.
Reduced MIP has 1978 rows, 1009 columns, and 5361 nonzeros.
Reduced MIP has 1009 binaries, 0 generals, 0 SOSs, and 0 indicators.
Presolve time = 0.02 sec. (9.33 ticks)
Probing time = 0.01 sec. (2.24 ticks)
Clique table members: 3777.
MIP emphasis: balance optimality and feasibility.
MIP search method: dynamic search.
Parallel mode: none, using 1 thread.
Root relaxation solution time = 0.00 sec. (4.19 ticks)

        Nodes                                         Cuts/
   Node  Left     Objective  IInf  Best Integer    Best Bound    ItCnt     Gap

*     0+    0                            0.0000      203.0000              --- 
*     0     0      integral     0      203.0000      203.0000      214    0.00%
Elapsed time = 0.06 sec. (34.85 ticks, tree = 0.00 MB, solutions = 2)

Root node processing (before b&c):
  Real time             =    0.06 sec. (34.95 ticks)
Sequential b&c:
  Real time             =    0.00 sec. (0.00 ticks)
                          ------------
Total (root+branch&cut) =    0.06 sec. (34.95 ticks)
Solution is feasible.

---------------------
@@@ MIP_optimal
>>> Benchmark mc2024_track1_181.cnf k 2 OPT 203 TimeCost 0.5009417533874512 TimeSolve 0.0628976821899414 TimeRead 0.005624532699584961 TimeTrans 0.4324195384979248
